(set-logic QF_BV)

;; Declare constants and functions
(declare-const name1 String)
(declare-const category1 String)
(declare-const warmBlooded1 Bool)
(declare-const laysEgg1 Bool)
(declare-const feedMilk1 Bool)

(declare-const name2 String)
(declare-const category2 String)
(declare-const warmBlooded2 Bool)
(declare-const laysEgg2 Bool)
(declare-const feedMilk2 Bool)

;; Add constraints and properties
(assert (or (= category1 "Mammals")
            (= category1 "Birds")
            (= category1 "Reptiles")
            (= category1 "Amphibians")
            (= category1 "Fish")))

(assert (or (= category2 "Mammals")
            (= category2 "Birds")
            (= category2 "Reptiles")
            (= category2 "Amphibians")
            (= category2 "Fish")))

(assert (=> (= warmBlooded1 true)
             (or (= category1 "Mammals")
                 (= category1 "Fish"))))

(assert (=> (= warmBlooded2 true)
             (or (= category2 "Mammals")
                 (= category2 "Fish"))))

(assert (=> (= category1 "Mammals")
             (and (= laysEgg1 false)
                  (= feedMilk1 true))))

(assert (=> (= category2 "Mammals")
             (and (= laysEgg2 false)
                  (= feedMilk2 true))))

;; Add additional constraints or properties as needed

;; Generate a model
(check-sat)
(get-model)
